0
Node Left Objective IInf Best_Integer Best_Bound ItCnt Gap
0+ 0 nan nan 17080.7259 -1708.0726 nan 110.00%
0+ 0 nan nan -66.0472 -1708.0726 nan ---
0 0 -101.4224 11 -66.0472 -101.4224 102 53.56%
0 0 -101.4224 9 -66.0472 LiftProj:6 116 53.56%
0 0 -101.0576 15 -66.0472 LiftProj:6 125 53.01%
0 0 -100.8272 13 -66.0472 LiftProj:11 135 52.66%
0 0 -100.7210 14 -66.0472 LiftProj:8 142 52.50%
0 0 -100.4895 13 -66.0472 LiftProj:14 155 52.15%
0 0 -100.4736 15 -66.0472 LiftProj:5 167 52.12%
0 0 -100.4040 16 -66.0472 LiftProj:12 183 52.02%
0 0 -100.2668 15 -66.0472 LiftProj:11 195 51.81%
0 0 -100.2351 15 -66.0472 LiftProj:8 204 51.76%
0 0 -100.1036 17 -66.0472 LiftProj:14 221 51.56%
0 0 -100.0599 17 -66.0472 LiftProj:15 232 51.50%
0 0 -99.7674 17 -66.0472 LiftProj:8 250 51.05%
0 0 -99.6951 20 -66.0472 LiftProj:11 261 50.95%
0 0 -99.6949 22 -66.0472 LiftProj:13 270 50.94%
0 0 -99.5650 21 -66.0472 LiftProj:11 289 50.75%
0 0 -99.5127 19 -66.0472 LiftProj:12 300 50.67%
0 0 -99.3909 20 -66.0472 LiftProj:10 310 50.48%
0 0 -99.3856 22 -66.0472 LiftProj:12 320 50.48%
0+ 0 nan nan -66.2013 -99.3856 nan 50.13%
0+ 0 nan nan -67.9853 -99.3856 nan 46.19%
0 2 -99.3856 21 -67.9853 -99.2181 320 45.94%
CPXPARAM_MIP_Cuts_Disjunctive-LiftProj:Disjunctive 17
CPXPARAM_MIP_Cuts_Disjunctive-LiftProj:LiftProj 0
1
Node Left Objective IInf Best_Integer Best_Bound ItCnt Gap
0+ 0 nan nan 17807.5550 -1780.7555 nan 110.00%
0+ 0 nan nan -370.1081 -1780.7555 nan 381.14%
0 0 -464.8417 18 -370.1081 -464.8417 114 25.60%
0+ 0 nan nan -406.0792 -464.8417 nan 14.47%
0 0 -464.4271 23 -406.0792 LiftProj:9 149 14.37%
0+ 0 nan nan -431.0373 -464.4271 nan 7.75%
0 0 -464.2895 25 -431.0373 LiftProj:16 159 7.71%
0 0 -463.8191 27 -431.0373 LiftProj:17 178 7.61%
0 0 -463.4968 29 -431.0373 LiftProj:19 192 7.53%
0 0 -463.4934 30 -431.0373 LiftProj:25 203 7.53%
0+ 0 nan nan -436.0050 -463.4934 nan 6.30%
0 0 -463.3611 32 -436.0050 LiftProj:29 241 6.27%
0 0 -462.8740 31 -436.0050 LiftProj:30 270 6.16%
0 0 -462.6423 34 -436.0050 LiftProj:21 296 6.11%
0 0 -462.1064 31 -436.0050 LiftProj:25 321 5.99%
0 0 -462.0246 33 -436.0050 LiftProj:22 330 5.97%
0 0 -461.8797 32 -436.0050 LiftProj:20 341 5.93%
0 0 -461.6095 36 -436.0050 LiftProj:21 359 5.87%
0 0 -461.1874 35 -436.0050 LiftProj:18 374 5.78%
0 0 -461.1798 38 -436.0050 LiftProj:20 382 5.77%
0+ 0 nan nan -445.2154 -461.1798 nan 3.59%
0+ 0 nan nan -446.1060 -461.1798 nan 3.38%
0 2 -461.1798 37 -446.1060 -461.1695 382 3.38%
CPXPARAM_MIP_Cuts_Disjunctive-LiftProj:Disjunctive 26
CPXPARAM_MIP_Cuts_Disjunctive-LiftProj:LiftProj 0
2
Node Left Objective IInf Best_Integer Best_Bound ItCnt Gap
0+ 0 nan nan 21992.9672 -2199.2967 nan 110.00%
0+ 0 nan nan -146.8978 -2199.2967 nan ---
0 0 -150.5448 8 -146.8978 -150.5448 99 2.48%
0 0 -150.5448 9 -146.8978 LiftProj:3 105 2.48%
0 0 -150.5448 9 -146.8978 LiftProj:4 111 2.48%
0 2 -150.5448 8 -146.8978 -150.5448 111 2.48%
CPXPARAM_MIP_Cuts_Disjunctive-LiftProj:Disjunctive 5
CPXPARAM_MIP_Cuts_Disjunctive-LiftProj:LiftProj 0
3
Node Left Objective IInf Best_Integer Best_Bound ItCnt Gap
0+ 0 nan nan 15130.5599 -1513.0560 nan 110.00%
0+ 0 nan nan -227.8985 -1513.0560 nan 563.92%
0 0 -380.6023 12 -227.8985 -380.6023 122 67.01%
0+ 0 nan nan -352.7968 -380.6023 nan 7.88%
0 0 -380.6023 13 -352.7968 LiftProj:8 140 7.88%
0 0 -380.5712 19 -352.7968 LiftProj:5 147 7.87%
0 0 -380.5305 17 -352.7968 LiftProj:12 157 7.86%
0 0 -380.4905 24 -352.7968 LiftProj:13 166 7.85%
0 0 -380.4417 26 -352.7968 LiftProj:14 179 7.84%
0 0 -380.3946 27 -352.7968 LiftProj:13 193 7.82%
0 0 -380.3418 27 -352.7968 LiftProj:19 208 7.81%
0 0 -380.2683 30 -352.7968 LiftProj:16 220 7.79%
0 0 -380.1870 29 -352.7968 LiftProj:16 234 7.76%
0 0 -380.1250 28 -352.7968 LiftProj:16 250 7.75%
0 0 -380.1096 30 -352.7968 LiftProj:17 261 7.74%
0+ 0 nan nan -377.6018 -380.1096 nan 0.66%
0 2 -380.0586 21 -377.6018 -380.0467 261 0.65%
CPXPARAM_MIP_Cuts_Disjunctive-LiftProj:Disjunctive 27
CPXPARAM_MIP_Cuts_Disjunctive-LiftProj:LiftProj 0
4
Node Left Objective IInf Best_Integer Best_Bound ItCnt Gap
0+ 0 nan nan 17229.3640 -1722.9364 nan 110.00%
0+ 0 nan nan -76.6411 -1722.9364 nan ---
0 0 -92.4482 11 -76.6411 -92.4482 96 20.62%
0 0 -92.4482 6 -76.6411 LiftProj:2 100 20.62%
0+ 0 nan nan -85.5988 -92.4482 nan 8.00%
0 0 -92.4482 6 -85.5988 LiftProj:2 102 8.00%
0 0 -92.4253 9 -85.5988 LiftProj:1 106 7.97%
0 0 -92.4248 9 -85.5988 LiftProj:1 108 7.97%
0 2 -92.4063 7 -85.5988 -91.8907 108 7.35%
CPXPARAM_MIP_Cuts_Disjunctive-LiftProj:Disjunctive 4
CPXPARAM_MIP_Cuts_Disjunctive-LiftProj:LiftProj 0
5
Node Left Objective IInf Best_Integer Best_Bound ItCnt Gap
0+ 0 nan nan 19297.4075 -1929.7408 nan 110.00%
0+ 0 nan nan -354.6203 -1929.7408 nan 444.17%
0 0 -499.0768 19 -354.6203 -499.0768 122 40.74%
0 0 -498.9842 22 -354.6203 LiftProj:7 152 40.71%
0+ 0 nan nan -423.3080 -498.9842 nan 17.88%
0 0 -498.9056 23 -423.3080 LiftProj:9 158 17.86%
0 0 -498.7789 22 -423.3080 LiftProj:8 168 17.83%
0+ 0 nan nan -423.5247 -498.7789 nan 17.77%
0 0 -498.7045 26 -423.5247 LiftProj:8 173 17.75%
0 0 -498.6268 28 -423.5247 LiftProj:11 185 17.73%
0 0 -498.5012 28 -423.5247 LiftProj:9 200 17.70%
0 0 -498.3928 27 -423.5247 LiftProj:12 211 17.68%
0 0 -498.3210 29 -423.5247 LiftProj:12 221 17.66%
0 0 -498.2851 30 -423.5247 LiftProj:10 236 17.65%
0 0 -498.2026 30 -423.5247 LiftProj:11 246 17.63%
0 0 -498.1657 33 -423.5247 LiftProj:12 259 17.62%
0+ 0 nan nan -480.8238 -498.1657 nan 3.61%
0 2 -498.1657 33 -480.8238 -498.1612 259 3.61%
CPXPARAM_MIP_Cuts_Disjunctive-LiftProj:Disjunctive 25
CPXPARAM_MIP_Cuts_Disjunctive-LiftProj:LiftProj 0
6
Node Left Objective IInf Best_Integer Best_Bound ItCnt Gap
0+ 0 nan nan 17283.6857 -1728.3686 nan 110.00%
0+ 0 nan nan -92.9189 -1728.3686 nan ---
0 0 -92.9914 7 -92.9189 -92.9914 106 0.08%
0 0 -92.9914 2 -92.9189 LiftProj:1 111 0.08%
0 1 -92.9914 2 -92.9189 -92.9914 116 0.08%
CPXPARAM_MIP_Cuts_Disjunctive-LiftProj:Disjunctive 0
CPXPARAM_MIP_Cuts_Disjunctive-LiftProj:LiftProj 0
7
Node Left Objective IInf Best_Integer Best_Bound ItCnt Gap
0+ 0 nan nan 18739.2128 -1873.9213 nan 110.00%
0+ 0 nan nan -357.3303 -1873.9213 nan 424.42%
0 0 -482.3310 15 -357.3303 -482.3310 117 34.98%
0 0 -482.2368 16 -357.3303 LiftProj:6 143 34.96%
0+ 0 nan nan -415.2892 -482.2368 nan 16.12%
0 0 -482.1719 17 -415.2892 LiftProj:5 147 16.11%
0 0 -482.0528 16 -415.2892 LiftProj:6 154 16.08%
0 0 -481.9939 19 -415.2892 LiftProj:6 162 16.06%
0 0 -481.9565 19 -415.2892 LiftProj:10 173 16.05%
0 0 -481.9036 20 -415.2892 LiftProj:10 186 16.04%
0+ 0 nan nan -419.3165 -481.9036 nan 14.93%
0 0 -481.8773 20 -419.3165 LiftProj:10 197 14.92%
0 0 -481.8173 20 -419.3165 LiftProj:14 209 14.91%
0 0 -481.7176 22 -419.3165 LiftProj:14 220 14.88%
0 0 -481.6970 24 -419.3165 LiftProj:14 227 14.88%
0+ 0 nan nan -477.4387 -481.6970 nan 0.89%
0 2 -481.6133 14 -477.4387 -481.6128 227 0.87%
CPXPARAM_MIP_Cuts_Disjunctive-LiftProj:Disjunctive 20
CPXPARAM_MIP_Cuts_Disjunctive-LiftProj:LiftProj 0
8
Node Left Objective IInf Best_Integer Best_Bound ItCnt Gap
0+ 0 nan nan 20324.0135 -2032.4014 nan 110.00%
0+ 0 nan nan -88.8752 -2032.4014 nan ---
0 0 -105.0691 10 -88.8752 -105.0691 105 18.22%
0 0 -105.0691 9 -88.8752 LiftProj:3 112 18.22%
0+ 0 nan nan -91.6493 -105.0691 nan 14.64%
0 0 -105.0691 9 -91.6493 LiftProj:2 114 14.64%
0 0 -105.0691 10 -91.6493 LiftProj:1 116 14.64%
0 2 -105.0691 9 -91.6493 -105.0691 116 14.64%
CPXPARAM_MIP_Cuts_Disjunctive-LiftProj:Disjunctive 3
CPXPARAM_MIP_Cuts_Disjunctive-LiftProj:LiftProj 0
9
Node Left Objective IInf Best_Integer Best_Bound ItCnt Gap
0+ 0 nan nan 19574.3912 -1957.4391 nan 110.00%
0+ 0 nan nan -472.8668 -1957.4391 nan 313.95%
0 0 -489.0607 12 -472.8668 -489.0607 98 3.42%
0 0 -489.0607 11 -472.8668 LiftProj:5 113 3.42%
0 0 -489.0327 18 -472.8668 LiftProj:7 130 3.42%
0+ 0 nan nan -476.7999 -489.0327 nan 2.57%
0 0 -489.0327 21 -476.7999 LiftProj:9 141 2.57%
0 0 -489.0245 17 -476.7999 LiftProj:4 144 2.56%
0 0 -489.0214 21 -476.7999 LiftProj:5 159 2.56%
0 2 -489.0214 19 -476.7999 -488.9905 159 2.56%
CPXPARAM_MIP_Cuts_Disjunctive-LiftProj:Disjunctive 9
CPXPARAM_MIP_Cuts_Disjunctive-LiftProj:LiftProj 0
10
Node Left Objective IInf Best_Integer Best_Bound ItCnt Gap
0+ 0 nan nan 27187.3215 -2718.7321 nan 110.00%
0+ 0 nan nan -162.7792 -2718.7321 nan ---
0 0 -173.7022 7 -162.7792 -173.7022 97 6.71%
0 0 -173.7022 8 -162.7792 LiftProj:4 110 6.71%
0 0 -173.7022 7 -162.7792 LiftProj:6 119 6.71%
0 2 -173.7022 7 -162.7792 -173.7022 119 6.71%
CPXPARAM_MIP_Cuts_Disjunctive-LiftProj:Disjunctive 9
CPXPARAM_MIP_Cuts_Disjunctive-LiftProj:LiftProj 0
11
Node Left Objective IInf Best_Integer Best_Bound ItCnt Gap
0+ 0 nan nan 22470.7077 -2247.0708 nan 110.00%
0+ 0 nan nan -340.3202 -2247.0708 nan 560.28%
0 0 -575.9502 12 -340.3202 -575.9502 147 69.24%
0+ 0 nan nan -557.5651 -575.9502 nan 3.30%
0 0 -575.9455 17 -557.5651 LiftProj:7 174 3.30%
0 0 -575.8995 21 -557.5651 LiftProj:13 194 3.29%
0 0 -575.8836 22 -557.5651 LiftProj:10 202 3.29%
0+ 0 nan nan -563.5260 -575.8836 nan 2.19%
0 2 -575.8836 22 -563.5260 -575.8631 202 2.19%
CPXPARAM_MIP_Cuts_Disjunctive-LiftProj:Disjunctive 14
CPXPARAM_MIP_Cuts_Disjunctive-LiftProj:LiftProj 0
12
Node Left Objective IInf Best_Integer Best_Bound ItCnt Gap
0+ 0 nan nan 21290.0070 -2129.0007 nan 110.00%
0+ 0 nan nan -114.1325 -2129.0007 nan ---
0 0 -133.7809 10 -114.1325 -133.7809 93 17.22%
0 0 -133.5960 11 -114.1325 LiftProj:6 104 17.05%
0 0 -133.2439 11 -114.1325 LiftProj:4 111 16.74%
0+ 0 nan nan -116.4719 -133.2439 nan 14.40%
0 0 -133.1069 11 -116.4719 LiftProj:7 120 14.28%
0 0 -132.3540 12 -116.4719 LiftProj:7 129 13.64%
0 0 -131.6441 11 -116.4719 LiftProj:12 140 13.03%
0 0 -131.4808 13 -116.4719 LiftProj:7 154 12.89%
0 0 -131.3889 12 -116.4719 LiftProj:6 160 12.81%
0 0 -131.1169 19 -116.4719 LiftProj:5 178 12.57%
0 0 -130.7851 20 -116.4719 LiftProj:14 204 12.29%
0 0 -130.7439 19 -116.4719 LiftProj:13 214 12.25%
0 0 -130.7007 23 -116.4719 LiftProj:10 223 12.22%
0 0 -130.6983 21 -116.4719 LiftProj:11 237 12.21%
0 0 -130.5829 15 -116.4719 LiftProj:8 244 12.12%
0 0 -130.5670 20 -116.4719 LiftProj:8 255 12.10%
0+ 0 nan nan -119.6869 -130.5670 nan 9.09%
0 2 -130.5670 20 -119.6869 -130.2812 255 8.85%
CPXPARAM_MIP_Cuts_Disjunctive-LiftProj:Disjunctive 18
CPXPARAM_MIP_Cuts_Disjunctive-LiftProj:LiftProj 0
13
Node Left Objective IInf Best_Integer Best_Bound ItCnt Gap
0+ 0 nan nan 18711.1828 -1871.1183 nan 110.00%
0+ 0 nan nan -213.0855 -1871.1183 nan 778.11%
0 0 -482.2163 20 -213.0855 -482.2163 120 126.30%
0+ 0 nan nan -428.3862 -482.2163 nan 12.57%
0 0 -481.9383 26 -428.3862 LiftProj:11 143 12.50%
0 0 -481.6782 28 -428.3862 LiftProj:13 153 12.44%
0+ 0 nan nan -458.9626 -481.6782 nan 4.95%
0 0 -480.5122 27 -458.9626 LiftProj:16 172 4.70%
0 0 -480.4883 28 -458.9626 LiftProj:20 183 4.69%
0 0 -480.4233 30 -458.9626 LiftProj:18 193 4.68%
0 0 -480.1774 29 -458.9626 LiftProj:20 208 4.62%
0 0 -479.8905 30 -458.9626 LiftProj:24 220 4.56%
0 0 -479.6593 32 -458.9626 LiftProj:27 234 4.51%
0 0 -479.6205 34 -458.9626 LiftProj:18 243 4.50%
0 0 -479.2988 27 -458.9626 LiftProj:17 262 4.43%
0 0 -479.1879 29 -458.9626 LiftProj:23 272 4.41%
0 0 -479.1761 31 -458.9626 LiftProj:17 284 4.40%
0 2 -479.1761 22 -458.9626 -478.9912 284 4.36%
CPXPARAM_MIP_Cuts_Disjunctive-LiftProj:Disjunctive 14
CPXPARAM_MIP_Cuts_Disjunctive-LiftProj:LiftProj 0
14
Node Left Objective IInf Best_Integer Best_Bound ItCnt Gap
0+ 0 nan nan 22739.1838 -2273.9184 nan 110.00%
0+ 0 nan nan -147.3840 -2273.9184 nan ---
0 0 -148.2727 6 -147.3840 -148.2727 111 0.60%
0 0 -148.2727 5 -147.3840 LiftProj:3 117 0.60%
0 0 -148.2727 7 -147.3840 LiftProj:3 125 0.60%
0 0 -148.2727 6 -147.3840 LiftProj:1 127 0.60%
0 2 -148.2727 4 -147.3840 -148.2727 127 0.60%
CPXPARAM_MIP_Cuts_Disjunctive-LiftProj:Disjunctive 7
CPXPARAM_MIP_Cuts_Disjunctive-LiftProj:LiftProj 0
15
Node Left Objective IInf Best_Integer Best_Bound ItCnt Gap
0+ 0 nan nan 20293.1236 -2029.3124 nan 110.00%
0+ 0 nan nan -190.5671 -2029.3124 nan 964.88%
0 0 -529.6746 16 -190.5671 -529.6746 118 177.95%
0+ 0 nan nan -507.8189 -529.6746 nan 4.30%
0 0 -529.2143 19 -507.8189 LiftProj:9 147 4.21%
0+ 0 nan nan -517.2780 -529.2143 nan 2.31%
0 0 -529.0537 20 -517.2780 LiftProj:11 158 2.28%
0 0 -528.9562 22 -517.2780 LiftProj:9 162 2.26%
0 0 -528.5680 24 -517.2780 LiftProj:16 172 2.18%
0+ 0 nan nan -517.8642 -528.5680 nan 2.07%
0 0 -528.4828 26 -517.8642 LiftProj:13 181 2.05%
0 0 -528.3987 27 -517.8642 LiftProj:14 190 2.03%
0+ 0 nan nan -519.2592 -528.3987 nan 1.76%
0 0 -528.0318 24 -519.2592 LiftProj:13 213 1.69%
0 0 -527.8467 24 -519.2592 LiftProj:19 222 1.65%
0 0 -527.7389 26 -519.2592 LiftProj:19 232 1.63%
0 0 -527.5014 24 -519.2592 LiftProj:13 243 1.59%
0 0 -527.3314 26 -519.2592 LiftProj:22 255 1.55%
0 0 -527.2416 30 -519.2592 LiftProj:13 271 1.54%
0 0 -527.0062 27 -519.2592 LiftProj:15 288 1.49%
0 0 -526.8369 30 -519.2592 LiftProj:21 304 1.46%
0 0 -526.7136 29 -519.2592 LiftProj:14 325 1.44%
0 0 -526.6560 28 -519.2592 LiftProj:17 335 1.42%
0 0 -526.6352 27 -519.2592 LiftProj:13 340 1.42%
0 2 -526.6352 26 -519.2592 -526.6068 340 1.42%
CPXPARAM_MIP_Cuts_Disjunctive-LiftProj:Disjunctive 19
CPXPARAM_MIP_Cuts_Disjunctive-LiftProj:LiftProj 0
16
Node Left Objective IInf Best_Integer Best_Bound ItCnt Gap
0+ 0 nan nan 21872.1954 -2187.2195 nan 110.00%
0+ 0 nan nan -111.2879 -2187.2195 nan ---
0 0 -132.1334 9 -111.2879 -132.1334 86 18.73%
0 0 -132.1334 10 -111.2879 LiftProj:3 93 18.73%
0+ 0 nan nan -122.8113 -132.1334 nan 7.59%
0 0 -132.1334 11 -122.8113 LiftProj:5 103 7.59%
0+ 0 nan nan -124.1906 -132.1334 nan 6.40%
0 2 -132.1334 9 -124.1906 -132.1334 103 6.40%
CPXPARAM_MIP_Cuts_Disjunctive-LiftProj:Disjunctive 5
CPXPARAM_MIP_Cuts_Disjunctive-LiftProj:LiftProj 0
17
Node Left Objective IInf Best_Integer Best_Bound ItCnt Gap
0+ 0 nan nan 16639.6111 -1663.9611 nan 110.00%
0+ 0 nan nan -391.7543 -1663.9611 nan 324.75%
0 0 -412.5998 14 -391.7543 -412.5998 111 5.32%
0 0 -412.5998 9 -391.7543 LiftProj:3 118 5.32%
0+ 0 nan nan -396.6768 -412.5998 nan 4.01%
0 0 -412.4917 13 -396.6768 LiftProj:6 127 3.99%
0 0 -412.3446 15 -396.6768 LiftProj:6 137 3.95%
0 0 -412.3332 17 -396.6768 LiftProj:8 147 3.95%
0+ 0 nan nan -397.7850 -412.3332 nan 3.66%
0 0 -412.3079 20 -397.7850 LiftProj:10 162 3.65%
0+ 0 nan nan -399.6378 -412.3079 nan 3.17%
0 0 -412.2323 20 -399.6378 LiftProj:9 171 3.15%
0+ 0 nan nan -402.0348 -412.2323 nan 2.54%
0 0 -412.1905 21 -402.0348 LiftProj:12 192 2.53%
0 0 -412.0988 21 -402.0348 LiftProj:14 206 2.50%
0 0 -412.0988 26 -402.0348 LiftProj:13 222 2.50%
0+ 0 nan nan -403.4117 -412.0988 nan 2.15%
0 2 -411.9115 21 -403.4117 -411.7586 222 2.07%
CPXPARAM_MIP_Cuts_Disjunctive-LiftProj:Disjunctive 16
CPXPARAM_MIP_Cuts_Disjunctive-LiftProj:LiftProj 0
18
Node Left Objective IInf Best_Integer Best_Bound ItCnt Gap
0+ 0 nan nan 18821.9021 -1882.1902 nan 110.00%
0+ 0 nan nan -99.4960 -1882.1902 nan ---
0 0 -101.6304 5 -99.4960 -101.6304 95 2.15%
0 0 -101.6304 4 -99.4960 LiftProj:2 97 2.15%
0+ 0 nan nan -101.4597 -101.6304 nan 0.17%
0 2 -101.6304 4 -101.4597 -101.6304 97 0.17%
CPXPARAM_MIP_Cuts_Disjunctive-LiftProj:Disjunctive 1
CPXPARAM_MIP_Cuts_Disjunctive-LiftProj:LiftProj 0
19
Node Left Objective IInf Best_Integer Best_Bound ItCnt Gap
0+ 0 nan nan 19012.7403 -1901.2740 nan 110.00%
0+ 0 nan nan -227.6407 -1901.2740 nan 735.21%
0 0 -483.7936 12 -227.6407 -483.7936 98 112.53%
0+ 0 nan nan -467.4059 -483.7936 nan 3.51%
0 0 -483.7936 10 -467.4059 LiftProj:7 121 3.51%
0 0 -483.6937 19 -467.4059 LiftProj:8 133 3.48%
0 0 -483.6086 21 -467.4059 LiftProj:8 139 3.47%
0 0 -483.5172 21 -467.4059 LiftProj:9 147 3.45%
0 0 -483.4187 19 -467.4059 LiftProj:8 154 3.43%
0 0 -483.3780 21 -467.4059 LiftProj:10 165 3.42%
0 0 -483.3524 23 -467.4059 LiftProj:11 173 3.41%
0 0 -483.2432 21 -467.4059 LiftProj:10 185 3.39%
0 0 -483.1839 23 -467.4059 LiftProj:12 202 3.38%
0 0 -483.1632 24 -467.4059 LiftProj:11 207 3.37%
0+ 0 nan nan -479.8300 -483.1632 nan 0.69%
0 2 -483.0420 18 -479.8300 -483.0409 207 0.67%
CPXPARAM_MIP_Cuts_Disjunctive-LiftProj:Disjunctive 18
CPXPARAM_MIP_Cuts_Disjunctive-LiftProj:LiftProj 0
20
Node Left Objective IInf Best_Integer Best_Bound ItCnt Gap
0+ 0 nan nan 15115.0246 -1511.5025 nan 110.00%
0+ 0 nan nan -82.2326 -1511.5025 nan ---
0 0 -92.8758 8 -82.2326 -92.8758 110 12.94%
0 2 -92.8758 8 -82.2326 -92.8758 110 12.94%
CPXPARAM_MIP_Cuts_Disjunctive-LiftProj:Disjunctive 0
CPXPARAM_MIP_Cuts_Disjunctive-LiftProj:LiftProj 0
21
Node Left Objective IInf Best_Integer Best_Bound ItCnt Gap
0+ 0 nan nan 15333.4248 -1533.3425 nan 110.00%
0+ 0 nan nan -186.6395 -1533.3425 nan 721.55%
0 0 -400.1363 23 -186.6395 -400.1363 129 114.39%
0+ 0 nan nan -329.3240 -400.1363 nan 21.50%
0 0 -399.3426 25 -329.3240 LiftProj:3 136 21.26%
0 0 -399.0932 25 -329.3240 LiftProj:3 144 21.19%
0+ 0 nan nan -334.9751 -399.0932 nan 19.14%
0 0 -398.9309 24 -334.9751 LiftProj:6 156 19.09%
0 0 -398.3710 27 -334.9751 LiftProj:8 171 18.93%
0 0 -398.2592 28 -334.9751 LiftProj:8 191 18.89%
0 0 -398.0771 28 -334.9751 LiftProj:6 202 18.84%
0 0 -398.0059 28 -334.9751 LiftProj:11 213 18.82%
0 0 -397.7627 30 -334.9751 LiftProj:12 227 18.74%
0 0 -397.6835 28 -334.9751 LiftProj:6 241 18.72%
0 0 -397.6170 30 -334.9751 LiftProj:13 254 18.70%
0 0 -397.4445 31 -334.9751 LiftProj:15 266 18.65%
0 0 -397.3862 32 -334.9751 LiftProj:16 280 18.63%
0 0 -397.2443 31 -334.9751 LiftProj:13 298 18.59%
0 0 -397.2157 33 -334.9751 LiftProj:14 303 18.58%
0 0 -397.0837 32 -334.9751 LiftProj:12 322 18.54%
0 0 -397.0406 32 -334.9751 LiftProj:17 339 18.53%
0+ 0 nan nan -382.9047 -397.0406 nan 3.69%
0 2 -397.0406 30 -382.9047 -397.0375 339 3.69%
CPXPARAM_MIP_Cuts_Disjunctive-LiftProj:Disjunctive 19
CPXPARAM_MIP_Cuts_Disjunctive-LiftProj:LiftProj 0
22
Node Left Objective IInf Best_Integer Best_Bound ItCnt Gap
0+ 0 nan nan 15579.5689 -1557.9569 nan 110.00%
0+ 0 nan nan -95.0211 -1557.9569 nan ---
0 0 -97.5212 4 -95.0211 -97.5212 95 2.63%
0 0 -97.5212 4 -95.0211 LiftProj:1 97 2.63%
0+ 0 nan nan -97.1564 -97.5212 nan 0.38%
0 1 -97.5212 2 -97.1564 -97.5212 101 0.38%
CPXPARAM_MIP_Cuts_Disjunctive-LiftProj:Disjunctive 1
CPXPARAM_MIP_Cuts_Disjunctive-LiftProj:LiftProj 0
23
Node Left Objective IInf Best_Integer Best_Bound ItCnt Gap
0+ 0 nan nan 16098.7152 -1609.8715 nan 110.00%
0+ 0 nan nan -207.5373 -1609.8715 nan 675.70%
0 0 -422.3078 20 -207.5373 -422.3078 113 103.49%
0+ 0 nan nan -311.6631 -422.3078 nan 35.50%
0 0 -421.5963 22 -311.6631 LiftProj:4 122 35.27%
0 0 -421.2528 21 -311.6631 LiftProj:5 129 35.16%
0 0 -420.6483 23 -311.6631 LiftProj:11 136 34.97%
0 0 -420.4969 24 -311.6631 LiftProj:6 143 34.92%
0 0 -420.4386 24 -311.6631 LiftProj:7 153 34.90%
0 0 -420.0949 23 -311.6631 LiftProj:6 166 34.79%
0 0 -419.9646 27 -311.6631 LiftProj:13 179 34.75%
0 0 -419.6016 26 -311.6631 LiftProj:8 193 34.63%
0 0 -419.1596 26 -311.6631 LiftProj:13 205 34.49%
0 0 -418.9701 27 -311.6631 LiftProj:12 221 34.43%
0 0 -418.9077 27 -311.6631 LiftProj:10 231 34.41%
0+ 0 nan nan -311.6773 -418.9077 nan 34.40%
0 0 -418.7340 27 -311.6773 LiftProj:14 246 34.35%
0 0 -418.6381 28 -311.6773 LiftProj:15 259 34.32%
0 0 -418.4880 25 -311.6773 LiftProj:12 273 34.27%
0 0 -418.3536 27 -311.6773 LiftProj:12 282 34.23%
0 0 -418.2715 28 -311.6773 LiftProj:10 295 34.20%
0 0 -418.1819 30 -311.6773 LiftProj:12 305 34.17%
0 0 -418.1103 26 -311.6773 LiftProj:10 322 34.15%
0 0 -418.0536 28 -311.6773 LiftProj:13 333 34.13%
0+ 0 nan nan -360.3604 -418.0536 nan 16.01%
0+ 0 nan nan -412.1820 -418.0536 nan 1.42%
0 2 -418.0536 26 -412.1820 -418.0432 333 1.42%
CPXPARAM_MIP_Cuts_Disjunctive-LiftProj:Disjunctive 23
CPXPARAM_MIP_Cuts_Disjunctive-LiftProj:LiftProj 0
24
Node Left Objective IInf Best_Integer Best_Bound ItCnt Gap
0+ 0 nan nan 18436.4445 -1843.6444 nan 110.00%
0+ 0 nan nan -104.2409 -1843.6444 nan ---
0 0 -115.5242 10 -104.2409 -115.5242 101 10.82%
0+ 0 nan nan -112.0044 -115.5242 nan 3.14%
0 2 -115.5242 6 -112.0044 -115.5242 101 3.14%
CPXPARAM_MIP_Cuts_Disjunctive-LiftProj:Disjunctive 0
CPXPARAM_MIP_Cuts_Disjunctive-LiftProj:LiftProj 0
25
Node Left Objective IInf Best_Integer Best_Bound ItCnt Gap
0+ 0 nan nan 18806.7169 -1880.6717 nan 110.00%
0+ 0 nan nan -296.0108 -1880.6717 nan 535.34%
0 0 -493.2545 22 -296.0108 -493.2545 116 66.63%
0+ 0 nan nan -352.2195 -493.2545 nan 40.04%
0 0 -491.9338 23 -352.2195 LiftProj:4 129 39.67%
0 0 -491.6568 24 -352.2195 LiftProj:5 138 39.59%
0+ 0 nan nan -363.5476 -491.6568 nan 35.24%
0 0 -491.2952 25 -363.5476 LiftProj:4 148 35.14%
0 0 -491.2125 26 -363.5476 LiftProj:11 157 35.12%
0 0 -491.2007 29 -363.5476 LiftProj:12 165 35.11%
0 0 -491.2007 29 -363.5476 LiftProj:8 167 35.11%
0+ 0 nan nan -475.1880 -491.2007 nan 3.37%
0+ 0 nan nan -475.7855 -491.2007 nan 3.24%
0 2 -491.2007 29 -475.7855 -491.1280 167 3.22%
CPXPARAM_MIP_Cuts_Disjunctive-LiftProj:Disjunctive 12
CPXPARAM_MIP_Cuts_Disjunctive-LiftProj:LiftProj 0
26
Node Left Objective IInf Best_Integer Best_Bound ItCnt Gap
0+ 0 nan nan 18557.2334 -1855.7233 nan 110.00%
0+ 0 nan nan -115.7676 -1855.7233 nan ---
0 0 -116.7233 6 -115.7676 -116.7233 100 0.83%
0 0 -116.7233 5 -115.7676 LiftProj:1 103 0.83%
0+ 0 nan nan -116.6471 -116.7233 nan 0.07%
0 1 -116.7233 2 -116.6471 -116.7233 108 0.07%
CPXPARAM_MIP_Cuts_Disjunctive-LiftProj:Disjunctive 1
CPXPARAM_MIP_Cuts_Disjunctive-LiftProj:LiftProj 0
27
Node Left Objective IInf Best_Integer Best_Bound ItCnt Gap
0+ 0 nan nan 17107.8930 -1710.7893 nan 110.00%
0+ 0 nan nan -272.6412 -1710.7893 nan 527.49%
0 0 -443.3711 18 -272.6412 -443.3711 123 62.62%
0+ 0 nan nan -320.5251 -443.3711 nan 38.33%
0 0 -441.9573 21 -320.5251 LiftProj:4 129 37.89%
0 0 -441.8407 20 -320.5251 LiftProj:4 138 37.85%
0+ 0 nan nan -322.1903 -441.8407 nan 37.14%
0 0 -441.7398 20 -322.1903 LiftProj:4 147 37.11%
0+ 0 nan nan -327.8202 -441.7398 nan 34.75%
0 0 -441.5872 23 -327.8202 LiftProj:10 156 34.70%
0 0 -441.3156 21 -327.8202 LiftProj:6 169 34.62%
0 0 -441.1450 23 -327.8202 LiftProj:13 181 34.57%
0 0 -440.7236 23 -327.8202 LiftProj:9 195 34.44%
0 0 -440.2680 25 -327.8202 LiftProj:10 210 34.30%
0 0 -440.1052 25 -327.8202 LiftProj:12 219 34.25%
0 0 -439.8792 23 -327.8202 LiftProj:9 232 34.18%
0 0 -439.5700 23 -327.8202 LiftProj:13 252 34.09%
0 0 -439.5275 26 -327.8202 LiftProj:15 263 34.08%
0 0 -439.4619 25 -327.8202 LiftProj:7 278 34.06%
0 0 -439.4461 25 -327.8202 LiftProj:7 283 34.05%
0+ 0 nan nan -431.5039 -439.4461 nan 1.84%
0+ 0 nan nan -432.6534 -439.4461 nan 1.57%
0+ 0 nan nan -433.0677 -439.4461 nan 1.47%
0 2 -439.4461 25 -433.0677 -439.4439 283 1.47%
CPXPARAM_MIP_Cuts_Disjunctive-LiftProj:Disjunctive 15
CPXPARAM_MIP_Cuts_Disjunctive-LiftProj:LiftProj 0
28
Node Left Objective IInf Best_Integer Best_Bound ItCnt Gap
0+ 0 nan nan 23195.9038 -2319.5904 nan 110.00%
0+ 0 nan nan -120.3208 -2319.5904 nan ---
0 0 -127.4928 8 -120.3208 -127.4928 90 5.96%
0 0 -127.4928 8 -120.3208 LiftProj:2 94 5.96%
0 0 -127.4928 8 -120.3208 LiftProj:2 96 5.96%
0+ 0 nan nan -122.2007 -127.4928 nan 4.33%
0 2 -127.4928 6 -122.2007 -127.4928 96 4.33%
CPXPARAM_MIP_Cuts_Disjunctive-LiftProj:Disjunctive 3
CPXPARAM_MIP_Cuts_Disjunctive-LiftProj:LiftProj 0
29
Node Left Objective IInf Best_Integer Best_Bound ItCnt Gap
0+ 0 nan nan 18473.6572 -1847.3657 nan 110.00%
0+ 0 nan nan -442.5715 -1847.3657 nan 317.42%
0 0 -449.7435 14 -442.5715 -449.7435 110 1.62%
0 0 -449.7435 6 -442.5715 LiftProj:2 114 1.62%
0 0 -449.6794 9 -442.5715 LiftProj:3 120 1.61%
0 2 -449.6608 8 -442.5715 -449.2782 120 1.52%
CPXPARAM_MIP_Cuts_Disjunctive-LiftProj:Disjunctive 4
CPXPARAM_MIP_Cuts_Disjunctive-LiftProj:LiftProj 0
30
Node Left Objective IInf Best_Integer Best_Bound ItCnt Gap
0+ 0 nan nan 20012.5374 -2001.2537 nan 110.00%
0+ 0 nan nan -95.2421 -2001.2537 nan ---
0 0 -95.6592 4 -95.2421 -95.6592 103 0.44%
0+ 0 nan nan -95.6568 -95.6592 nan 0.00%
CPXPARAM_MIP_Cuts_Disjunctive-LiftProj:Disjunctive 0
CPXPARAM_MIP_Cuts_Disjunctive-LiftProj:LiftProj 0
31
Node Left Objective IInf Best_Integer Best_Bound ItCnt Gap
0+ 0 nan nan 20469.5526 -2046.9553 nan 110.00%
0+ 0 nan nan -509.2033 -2046.9553 nan 301.99%
0 0 -509.6204 10 -509.2033 -509.6204 104 0.08%
0+ 0 nan nan -509.6180 -509.6204 nan 0.00%
CPXPARAM_MIP_Cuts_Disjunctive-LiftProj:Disjunctive 0
CPXPARAM_MIP_Cuts_Disjunctive-LiftProj:LiftProj 0
32
Node Left Objective IInf Best_Integer Best_Bound ItCnt Gap
0+ 0 nan nan 13911.0729 -1391.1073 nan 110.00%
0+ 0 nan nan -59.4883 -1391.1073 nan ---
0 0 -70.6409 6 -59.4883 -70.6409 98 18.75%
0 0 -70.6409 6 -59.4883 LiftProj:1 100 18.75%
0 0 -70.6409 7 -59.4883 LiftProj:1 102 18.75%
0 2 -70.6409 6 -59.4883 -70.6409 102 18.75%
CPXPARAM_MIP_Cuts_Disjunctive-LiftProj:Disjunctive 2
CPXPARAM_MIP_Cuts_Disjunctive-LiftProj:LiftProj 0
33
Node Left Objective IInf Best_Integer Best_Bound ItCnt Gap
0+ 0 nan nan 16748.4512 -1674.8451 nan 110.00%
0+ 0 nan nan -199.5184 -1674.8451 nan 739.44%
0 0 -433.9837 17 -199.5184 -433.9837 122 117.52%
0+ 0 nan nan -404.0930 -433.9837 nan 7.40%
0 0 -433.9417 25 -404.0930 LiftProj:5 151 7.39%
0 0 -433.8359 27 -404.0930 LiftProj:13 165 7.36%
0+ 0 nan nan -423.1510 -433.8359 nan 2.53%
0 0 -433.7782 29 -423.1510 LiftProj:15 173 2.51%
0 0 -433.7654 26 -423.1510 LiftProj:15 180 2.51%
0 0 -433.5252 28 -423.1510 LiftProj:13 203 2.45%
0 0 -433.4016 30 -423.1510 LiftProj:15 217 2.42%
0 0 -433.2428 30 -423.1510 LiftProj:13 233 2.38%
0 0 -433.1864 31 -423.1510 LiftProj:18 244 2.37%
0 0 -433.0588 30 -423.1510 LiftProj:14 260 2.34%
0 0 -433.0548 31 -423.1510 LiftProj:11 264 2.34%
0 2 -433.0539 30 -423.1510 -433.0375 264 2.34%
CPXPARAM_MIP_Cuts_Disjunctive-LiftProj:Disjunctive 21
CPXPARAM_MIP_Cuts_Disjunctive-LiftProj:LiftProj 0
34
Node Left Objective IInf Best_Integer Best_Bound ItCnt Gap
0+ 0 nan nan 19055.0102 -1905.5010 nan 110.00%
0+ 0 nan nan -120.9836 -1905.5010 nan ---
0 0 -122.0803 5 -120.9836 -122.0803 92 0.91%
0 0 -122.0803 6 -120.9836 LiftProj:3 98 0.91%
0 0 -122.0803 6 -120.9836 LiftProj:1 103 0.91%
0 2 -122.0803 2 -120.9836 -122.0803 103 0.91%
CPXPARAM_MIP_Cuts_Disjunctive-LiftProj:Disjunctive 3
CPXPARAM_MIP_Cuts_Disjunctive-LiftProj:LiftProj 0
35
Node Left Objective IInf Best_Integer Best_Bound ItCnt Gap
0+ 0 nan nan 16783.2413 -1678.3241 nan 110.00%
0+ 0 nan nan -154.2101 -1678.3241 nan 988.34%
0 0 -435.0274 15 -154.2101 -435.0274 116 182.10%
0+ 0 nan nan -370.8793 -435.0274 nan 17.30%
0 0 -434.9115 20 -370.8793 LiftProj:8 144 17.26%
0 0 -434.8016 23 -370.8793 LiftProj:12 159 17.24%
0+ 0 nan nan -376.3027 -434.8016 nan 15.55%
0 0 -434.6399 22 -376.3027 LiftProj:8 173 15.50%
0 0 -434.4972 25 -376.3027 LiftProj:18 185 15.46%
0 0 -434.2220 24 -376.3027 LiftProj:15 200 15.39%
0 0 -434.1341 25 -376.3027 LiftProj:15 210 15.37%
0 0 -434.0750 28 -376.3027 LiftProj:12 222 15.35%
0 0 -433.9148 26 -376.3027 LiftProj:11 239 15.31%
0 0 -433.8885 26 -376.3027 LiftProj:16 250 15.30%
0 0 -433.8612 27 -376.3027 LiftProj:20 260 15.30%
0+ 0 nan nan -376.4596 -433.8612 nan 15.25%
0+ 0 nan nan -429.6294 -433.8612 nan 0.99%
0 2 -433.8173 24 -429.6294 -433.8168 260 0.97%
CPXPARAM_MIP_Cuts_Disjunctive-LiftProj:Disjunctive 18
CPXPARAM_MIP_Cuts_Disjunctive-LiftProj:LiftProj 0
36
Node Left Objective IInf Best_Integer Best_Bound ItCnt Gap
0+ 0 nan nan 22941.7465 -2294.1747 nan 110.00%
0+ 0 nan nan -133.5711 -2294.1747 nan ---
0 0 -148.3782 13 -133.5711 -148.3782 104 11.09%
0 2 -148.3782 6 -133.5711 -148.3782 104 11.09%
CPXPARAM_MIP_Cuts_Disjunctive-LiftProj:Disjunctive 0
CPXPARAM_MIP_Cuts_Disjunctive-LiftProj:LiftProj 0
37
Node Left Objective IInf Best_Integer Best_Bound ItCnt Gap
0+ 0 nan nan 22253.7712 -2225.3771 nan 110.00%
0+ 0 nan nan -275.0498 -2225.3771 nan 709.08%
0 0 -586.3967 21 -275.0498 -586.3967 122 113.20%
0+ 0 nan nan -346.2278 -586.3967 nan 69.37%
0 0 -586.3194 22 -346.2278 LiftProj:2 126 69.35%
0+ 0 nan nan -355.1299 -586.3194 nan 65.10%
0 0 -586.1042 24 -355.1299 LiftProj:4 132 65.04%
0 0 -585.6761 26 -355.1299 LiftProj:9 140 64.92%
0 0 -585.3705 26 -355.1299 LiftProj:12 161 64.83%
0 0 -585.2810 27 -355.1299 LiftProj:12 176 64.81%
0+ 0 nan nan -425.2598 -585.2810 nan 37.63%
0 0 -584.8858 28 -425.2598 LiftProj:14 188 37.54%
0 0 -584.5294 28 -425.2598 LiftProj:16 210 37.45%
0+ 0 nan nan -495.8651 -584.5294 nan 17.88%
0 0 -584.3831 32 -495.8651 LiftProj:13 223 17.85%
0 0 -584.2790 32 -495.8651 LiftProj:13 237 17.83%
0 0 -584.1777 33 -495.8651 LiftProj:18 246 17.81%
0 0 -584.0238 34 -495.8651 LiftProj:18 259 17.78%
0 0 -583.8718 33 -495.8651 LiftProj:12 272 17.75%
0 0 -583.7938 32 -495.8651 LiftProj:14 282 17.73%
0 0 -583.7121 34 -495.8651 LiftProj:19 295 17.72%
0 0 -583.6874 31 -495.8651 LiftProj:17 310 17.71%
0+ 0 nan nan -567.3949 -583.6874 nan 2.87%
0 2 -583.6874 29 -567.3949 -583.6738 310 2.87%
CPXPARAM_MIP_Cuts_Disjunctive-LiftProj:Disjunctive 19
CPXPARAM_MIP_Cuts_Disjunctive-LiftProj:LiftProj 0
38
Node Left Objective IInf Best_Integer Best_Bound ItCnt Gap
0+ 0 nan nan 19124.1760 -1912.4176 nan 110.00%
0+ 0 nan nan -107.9750 -1912.4176 nan ---
0 0 -110.2025 8 -107.9750 -110.2025 110 2.06%
0 0 -110.2025 4 -107.9750 LiftProj:5 115 2.06%
0 2 -110.2025 2 -107.9750 -110.2025 115 2.06%
CPXPARAM_MIP_Cuts_Disjunctive-LiftProj:Disjunctive 4
CPXPARAM_MIP_Cuts_Disjunctive-LiftProj:LiftProj 0
39
Node Left Objective IInf Best_Integer Best_Bound ItCnt Gap
0+ 0 nan nan 22618.2976 -2261.8298 nan 110.00%
0+ 0 nan nan -369.0992 -2261.8298 nan 512.80%
0 0 -597.1756 18 -369.0992 -597.1756 124 61.79%
0 0 -596.7484 20 -369.0992 LiftProj:4 133 61.68%
0+ 0 nan nan -439.0576 -596.7484 nan 35.92%
0 0 -596.4143 22 -439.0576 LiftProj:12 140 35.84%
0 0 -596.1490 23 -439.0576 LiftProj:7 149 35.78%
0 0 -595.8919 23 -439.0576 LiftProj:8 155 35.72%
0+ 0 nan nan -441.5634 -595.8919 nan 34.95%
0 0 -595.4070 22 -441.5634 LiftProj:16 175 34.84%
0 0 -595.2116 25 -441.5634 LiftProj:12 189 34.80%
0 0 -594.7701 23 -441.5634 LiftProj:10 204 34.70%
0 0 -594.5105 26 -441.5634 LiftProj:18 216 34.64%
0 0 -593.9215 26 -441.5634 LiftProj:13 231 34.50%
0 0 -593.8179 26 -441.5634 LiftProj:13 239 34.48%
0 0 -593.3529 25 -441.5634 LiftProj:12 253 34.38%
0 0 -593.1996 26 -441.5634 LiftProj:18 272 34.34%
0 0 -593.0876 28 -441.5634 LiftProj:15 280 34.32%
0 0 -593.0041 29 -441.5634 LiftProj:15 290 34.30%
0 0 -592.9089 28 -441.5634 LiftProj:9 302 34.27%
0 0 -592.7910 28 -441.5634 LiftProj:13 316 34.25%
0 0 -592.6734 28 -441.5634 LiftProj:19 331 34.22%
0 0 -592.5709 27 -441.5634 LiftProj:11 352 34.20%
0 0 -592.4758 27 -441.5634 LiftProj:24 370 34.18%
0+ 0 nan nan -577.6004 -592.4758 nan 2.58%
0+ 0 nan nan -582.6017 -592.4758 nan 1.69%
0 2 -592.4758 26 -582.6017 -592.4222 370 1.69%
CPXPARAM_MIP_Cuts_Disjunctive-LiftProj:Disjunctive 20
CPXPARAM_MIP_Cuts_Disjunctive-LiftProj:LiftProj 0
